files/upTests/tuple-of-sets2/0001.eprime.solution
language ESSENCE' 1.0
$ minion Nodes: 10
$ minion TotalTime: 0.001124
$ Savile Row TotalTime: 0.333
letting a_tuple1 be 0
letting b_tuple1 be 0
letting b_tuple2 be 3
letting c_tuple1 be 0
letting b_tuple3_ExplicitVarSize_tuple2 be [3, 3]
letting c_tuple2_ExplicitVarSize_tuple2 be [3, 3]
letting b_tuple3_ExplicitVarSize_tuple1 be [0, 0]
letting c_tuple2_ExplicitVarSize_tuple1 be [0, 0]
